[2026-03-24T00:33:25.795Z] Pipeline "set_set_set_s002_g005" → 2026_03_24_00_33_25_set_set_set_s002_g005_max.sol
Set parameter WLSAccessID
Set parameter WLSSecret
Set parameter LicenseID to value 2792458
Set parameter LogFile to value "gurobi.log"
Using license file /root/gurobi.lic
Academic license 2792458 - for non-commercial use only - registered to an___@studenti.unipg.it

Gurobi Optimizer version 13.0.1 build v13.0.1rc0 (linux64 - "Ubuntu 24.04.4 LTS")
Copyright (c) 2026, Gurobi Optimization, LLC

Warning: Duplicate section found (read 'binary') - Is a variable name equal to an LP file format keyword?
Warning: Duplicate section found (read 'binary') - Is a variable name equal to an LP file format keyword?
Warning: Duplicate section found (read 'binary') - Is a variable name equal to an LP file format keyword?
Warning: Duplicate section found (read 'binary') - Is a variable name equal to an LP file format keyword?
Warning: Duplicate section found (read 'binary') - Is a variable name equal to an LP file format keyword?
Warning: Duplicate section found (read 'binary') - Is a variable name equal to an LP file format keyword?
Warning: Duplicate section found (read 'binary') - Is a variable name equal to an LP file format keyword?
Warning: Duplicate section found (read 'binary') - Is a variable name equal to an LP file format keyword?
Warning: Duplicate section found (read 'binary') - Is a variable name equal to an LP file format keyword?
Warning: Duplicate section found (read 'binary') - Is a variable name equal to an LP file format keyword?
Warning: Further warnings of this type will be omitted.
Read LP format model from file /root/bgw/data/uploads/2026_03_24_00_33_25_set_set_set_s002_g005_max.lp
Reading time = 0.00 seconds
: 218 rows, 56 columns, 565 nonzeros

Using Gurobi shared library /opt/gurobi1301/linux64/lib/libgurobi.so.13.0.1

CPU model: AMD EPYC-Genoa Processor, instruction set [SSE2|AVX|AVX2|AVX512]
Thread count: 16 physical cores, 16 logical processors, using up to 16 threads

Academic license 2792458 - for non-commercial use only - registered to an___@studenti.unipg.it
Optimize a model with 218 rows, 56 columns and 565 nonzeros (Max)
Model fingerprint: 0xf1503914
Model has 9 linear objective coefficients
Variable types: 16 continuous, 40 integer (40 binary)
Coefficient statistics:
  Matrix range     [1e+00, 8e+00]
  Objective range  [1e+00, 1e+00]
  Bounds range     [1e+00, 1e+00]
  RHS range        [1e+00, 9e+00]

Found heuristic solution: objective 9.0000000
Presolve removed 125 rows and 21 columns
Presolve time: 0.00s
Presolved: 93 rows, 35 columns, 299 nonzeros
Variable types: 0 continuous, 35 integer (30 binary)
Found heuristic solution: objective 18.0000000

Root relaxation: objective 4.200000e+01, 23 iterations, 0.00 seconds (0.00 work units)

    Nodes    |    Current Node    |     Objective Bounds      |     Work
 Expl Unexpl |  Obj  Depth IntInf | Incumbent    BestBd   Gap | It/Node Time

     0     0   42.00000    0   14   18.00000   42.00000   133%     -    0s
H    0     0                      22.0000000   42.00000  90.9%     -    0s
H    0     0                      23.0000000   42.00000  82.6%     -    0s
     0     0   42.00000    0    9   23.00000   42.00000  82.6%     -    0s
H    0     0                      25.0000000   42.00000  68.0%     -    0s
     0     0   39.00000    0   14   25.00000   39.00000  56.0%     -    0s
     0     0   39.00000    0   14   25.00000   39.00000  56.0%     -    0s
     0     0   37.80000    0   14   25.00000   37.80000  51.2%     -    0s
     0     0   37.80000    0   14   25.00000   37.80000  51.2%     -    0s
     0     0   36.90000    0   14   25.00000   36.90000  47.6%     -    0s
     0     0   36.90000    0   14   25.00000   36.90000  47.6%     -    0s
     0     0   35.80000    0   14   25.00000   35.80000  43.2%     -    0s
     0     0   35.80000    0   14   25.00000   35.80000  43.2%     -    0s
     0     0   35.40000    0   14   25.00000   35.40000  41.6%     -    0s
     0     0   35.40000    0   14   25.00000   35.40000  41.6%     -    0s
     0     2   35.40000    0   14   25.00000   35.40000  41.6%     -    0s

Cutting planes:
  Gomory: 2
  Cover: 2
  MIR: 3
  Inf proof: 1
  Zero half: 2

Explored 348 nodes (2178 simplex iterations) in 0.06 seconds (0.02 work units)
Thread count was 16 (of 16 available processors)

Solution count 5: 25 23 22 ... 9

Optimal solution found (tolerance 1.00e-04)
Best objective 2.500000000000e+01, best bound 2.500000000000e+01, gap 0.0000%

Wrote result file '/root/bgw/data/results/2026_03_24_00_33_25_set_set_set_s002_g005_max.sol'

